7
	1 2	3 1	1 1	1 5	1 3	2 1	1 4
0	1	 1	 0	 0	 0	 0	 0	 
1	1	 1	 0	 0	 0	 0	 0	 
2	0	 0	 0	 0	 0	 0	 0	 
3	1	 1	 0	 0	 0	 0	 0	 
4	0	 0	 0	 0	 0	 0	 1	 
5	1	 1	 0	 0	 0	 0	 0	 
6	0	 0	 0	 0	 0	 1	 0	 
7	1	 1	 0	 0	 0	 0	 0	 
8	0	 0	 0	 0	 0	 1	 1	 
9	1	 1	 0	 0	 0	 0	 0	 
10	0	 0	 0	 0	 1	 0	 0	 
11	1	 1	 0	 0	 0	 0	 0	 
12	0	 0	 0	 0	 1	 0	 1	 
13	1	 1	 0	 0	 0	 0	 0	 
14	0	 0	 0	 0	 1	 1	 0	 
15	1	 1	 0	 0	 0	 0	 0	 
16	0	 0	 0	 0	 1	 1	 1	 
17	1	 1	 0	 0	 0	 0	 0	 
18	0	 0	 0	 1	 0	 0	 0	 
19	1	 1	 0	 0	 0	 0	 0	 
20	0	 0	 0	 1	 0	 0	 1	 
21	1	 1	 0	 0	 0	 0	 0	 
22	0	 0	 0	 1	 0	 1	 0	 
23	1	 1	 0	 0	 0	 0	 0	 
24	0	 0	 0	 1	 0	 1	 1	 
25	1	 1	 0	 0	 0	 0	 0	 
26	0	 0	 0	 1	 1	 0	 0	 
27	0	 0	 0	 1	 1	 0	 1	 
28	1	 1	 0	 0	 0	 0	 0	 
29	0	 0	 0	 1	 1	 1	 0	 
30	1	 1	 0	 0	 0	 0	 0	 
31	0	 0	 0	 1	 1	 1	 1	 
32	0	 1	 1	 0	 0	 0	 0	 
33	0	 0	 1	 0	 0	 0	 0	 
34	0	 0	 0	 0	 0	 1	 0	 
35	0	 0	 1	 0	 0	 0	 1	 
36	0	 0	 0	 0	 0	 1	 0	 
37	0	 0	 1	 0	 0	 1	 0	 
38	0	 0	 0	 0	 0	 1	 0	 
39	0	 0	 1	 0	 0	 1	 1	 
40	0	 0	 0	 0	 0	 1	 0	 
41	0	 0	 1	 0	 1	 0	 0	 
42	0	 0	 0	 0	 0	 1	 0	 
43	0	 0	 1	 0	 1	 0	 1	 
44	0	 0	 0	 0	 0	 1	 0	 
45	0	 0	 1	 0	 1	 1	 0	 
46	0	 0	 0	 0	 0	 1	 0	 
47	0	 0	 1	 0	 1	 1	 1	 
48	0	 0	 0	 0	 0	 1	 0	 
49	0	 0	 1	 1	 0	 0	 0	 
50	0	 0	 0	 0	 0	 1	 0	 
51	0	 0	 1	 1	 0	 0	 1	 
52	0	 0	 0	 0	 0	 1	 0	 
53	0	 0	 1	 1	 0	 1	 0	 
54	0	 0	 0	 0	 0	 1	 0	 
55	0	 0	 1	 1	 0	 1	 1	 
56	0	 0	 0	 0	 0	 1	 0	 
57	0	 0	 1	 1	 1	 0	 0	 
58	0	 0	 0	 0	 0	 1	 0	 
59	0	 0	 1	 1	 1	 0	 1	 
60	0	 0	 0	 0	 0	 1	 0	 
61	0	 0	 1	 1	 1	 1	 0	 
62	0	 0	 0	 0	 0	 1	 0	 
63	0	 0	 1	 1	 1	 1	 1	 
64	0	 0	 0	 0	 0	 1	 0	 
65	0	 1	 0	 0	 0	 0	 0	 
66	0	 0	 0	 0	 0	 1	 0	 
67	0	 1	 0	 0	 0	 0	 1	 
68	0	 1	 0	 0	 0	 1	 0	 
69	0	 0	 0	 0	 0	 1	 0	 
70	0	 1	 0	 0	 0	 1	 1	 
71	0	 0	 0	 0	 0	 1	 0	 
72	0	 1	 0	 0	 1	 0	 0	 
73	0	 0	 0	 0	 0	 1	 0	 
74	0	 1	 0	 0	 1	 0	 1	 
75	0	 0	 0	 0	 0	 1	 0	 
76	0	 1	 0	 0	 1	 1	 0	 
77	0	 0	 0	 0	 0	 1	 0	 
78	0	 1	 0	 0	 1	 1	 1	 
79	0	 0	 0	 0	 0	 1	 0	 
80	0	 1	 1	 0	 0	 1	 0	 
81	0	 1	 1	 0	 0	 1	 0	 
82	0	 1	 0	 1	 0	 0	 0	 
83	0	 1	 1	 0	 0	 1	 0	 
84	0	 1	 0	 1	 0	 0	 1	 
85	0	 1	 1	 0	 0	 1	 0	 
86	0	 1	 0	 1	 0	 1	 0	 
87	0	 1	 1	 0	 0	 1	 0	 
88	0	 1	 0	 1	 0	 1	 1	 
89	0	 1	 1	 0	 0	 1	 0	 
90	0	 1	 0	 1	 1	 0	 0	 
91	0	 1	 1	 0	 0	 1	 0	 
92	0	 1	 0	 1	 1	 0	 1	 
93	0	 1	 1	 0	 0	 1	 0	 
94	0	 1	 0	 1	 1	 1	 0	 
95	0	 1	 1	 0	 0	 1	 0	 
96	0	 1	 0	 1	 1	 1	 1	 
97	0	 1	 1	 0	 0	 1	 0	 
98	0	 1	 1	 0	 0	 0	 1	 
99	0	 1	 1	 0	 0	 1	 0	 
100	0	 1	 1	 0	 0	 1	 1	 
101	0	 1	 1	 0	 0	 1	 0	 
102	0	 1	 1	 0	 1	 0	 0	 
103	0	 1	 1	 0	 0	 1	 0	 
104	0	 1	 1	 0	 1	 0	 1	 
105	0	 1	 1	 0	 0	 1	 0	 
106	0	 1	 1	 0	 1	 1	 0	 
107	0	 1	 1	 0	 0	 1	 0	 
108	0	 1	 1	 0	 1	 1	 1	 
109	0	 1	 1	 0	 0	 1	 0	 
110	0	 1	 1	 1	 0	 0	 0	 
111	0	 1	 1	 0	 0	 1	 0	 
112	0	 1	 1	 1	 0	 0	 1	 
113	0	 1	 1	 0	 0	 1	 0	 
114	0	 1	 1	 1	 0	 1	 0	 
115	0	 1	 1	 0	 0	 1	 0	 
116	0	 1	 1	 1	 0	 1	 1	 
117	0	 0	 0	 0	 0	 0	 0	 
118	0	 1	 1	 1	 1	 0	 0	 
119	0	 0	 0	 0	 0	 0	 0	 
120	0	 1	 1	 1	 1	 0	 1	 
121	0	 0	 0	 0	 0	 0	 0	 
122	0	 1	 1	 1	 1	 1	 0	 
123	0	 0	 0	 0	 0	 0	 0	 
124	0	 1	 1	 1	 1	 1	 1	 
125	0	 0	 0	 0	 0	 0	 0	 
126	1	 0	 0	 0	 0	 0	 0	 
127	0	 0	 0	 0	 0	 0	 0	 
128	1	 0	 0	 0	 0	 0	 1	 
129	0	 0	 0	 0	 0	 0	 0	 
130	1	 0	 0	 0	 0	 1	 0	 
131	0	 0	 0	 0	 0	 0	 0	 
132	1	 0	 0	 0	 0	 1	 1	 
133	0	 0	 0	 0	 0	 0	 0	 
134	1	 0	 0	 0	 1	 0	 0	 
135	0	 0	 0	 0	 0	 0	 0	 
136	1	 0	 0	 0	 1	 0	 1	 
137	0	 0	 0	 0	 0	 0	 0	 
138	1	 0	 0	 0	 1	 1	 0	 
139	0	 0	 0	 0	 0	 0	 0	 
140	1	 0	 0	 0	 1	 1	 1	 
141	0	 0	 0	 0	 0	 0	 0	 
142	1	 0	 0	 1	 0	 0	 0	 
143	0	 0	 0	 0	 0	 0	 0	 
144	1	 0	 0	 1	 0	 0	 1	 
145	0	 0	 0	 0	 0	 0	 0	 
146	1	 0	 0	 1	 0	 1	 0	 
147	0	 0	 0	 0	 0	 0	 0	 
148	1	 0	 0	 1	 0	 1	 1	 
149	0	 0	 0	 0	 0	 0	 0	 
150	1	 0	 0	 1	 1	 0	 0	 
151	1	 0	 0	 1	 1	 0	 1	 
152	0	 0	 0	 0	 0	 0	 0	 
153	1	 0	 0	 1	 1	 1	 0	 
154	0	 0	 0	 0	 0	 0	 0	 
155	1	 0	 0	 1	 1	 1	 1	 
156	0	 0	 0	 0	 0	 0	 0	 
157	1	 0	 1	 0	 0	 0	 0	 
158	0	 0	 0	 0	 0	 0	 0	 
159	1	 0	 1	 0	 0	 0	 1	 
160	0	 0	 0	 0	 0	 0	 0	 
161	1	 0	 1	 0	 0	 1	 0	 
162	0	 0	 0	 0	 0	 0	 0	 
163	1	 0	 1	 0	 0	 1	 1	 
164	0	 0	 0	 0	 0	 0	 0	 
165	1	 0	 1	 0	 1	 0	 0	 
166	0	 0	 0	 0	 0	 0	 0	 
167	1	 0	 1	 0	 1	 0	 1	 
168	0	 0	 0	 0	 0	 0	 0	 
169	1	 0	 1	 0	 1	 1	 0	 
170	0	 0	 0	 0	 0	 0	 0	 
171	1	 0	 1	 0	 1	 1	 1	 
172	0	 0	 0	 0	 0	 0	 0	 
173	1	 0	 1	 1	 0	 0	 0	 
174	0	 0	 0	 0	 0	 0	 0	 
175	1	 0	 1	 1	 0	 0	 1	 
176	0	 0	 0	 0	 0	 0	 0	 
177	1	 0	 1	 1	 0	 1	 0	 
178	0	 0	 0	 0	 0	 0	 0	 
179	1	 0	 1	 1	 0	 1	 1	 
180	0	 0	 0	 0	 0	 0	 0	 
181	1	 0	 1	 1	 1	 0	 0	 
182	0	 0	 0	 0	 0	 0	 0	 
183	1	 0	 1	 1	 1	 0	 1	 
184	0	 0	 0	 0	 0	 0	 0	 
185	1	 0	 1	 1	 1	 1	 0	 
186	0	 0	 0	 0	 0	 0	 0	 
187	1	 0	 1	 1	 1	 1	 1	 
188	0	 0	 0	 0	 0	 0	 0	 
189	1	 1	 0	 0	 0	 0	 1	 
190	0	 0	 0	 0	 0	 0	 0	 
191	1	 1	 0	 0	 0	 1	 0	 
192	0	 0	 0	 0	 0	 0	 0	 
193	1	 1	 0	 0	 0	 1	 1	 
194	0	 0	 0	 0	 0	 0	 0	 
195	1	 1	 0	 0	 1	 0	 0	 
196	0	 0	 0	 0	 0	 0	 0	 
197	1	 1	 0	 0	 1	 0	 1	 
198	0	 0	 0	 0	 0	 0	 0	 
199	1	 1	 0	 0	 1	 1	 0	 
200	0	 0	 0	 0	 0	 0	 0	 
201	1	 1	 0	 0	 1	 1	 1	 
202	0	 0	 0	 0	 0	 0	 0	 
203	1	 1	 0	 1	 0	 0	 0	 
204	0	 0	 0	 0	 0	 0	 0	 
205	1	 1	 0	 1	 0	 0	 1	 
206	0	 1	 1	 0	 0	 0	 0	 
207	1	 1	 0	 1	 0	 1	 0	 
208	0	 1	 1	 0	 0	 0	 0	 
209	1	 1	 0	 1	 0	 1	 1	 
210	0	 1	 1	 0	 0	 0	 0	 
211	1	 1	 0	 1	 1	 0	 0	 
212	0	 1	 1	 0	 0	 0	 0	 
213	1	 1	 0	 1	 1	 0	 1	 
214	0	 1	 1	 0	 0	 0	 0	 
215	1	 1	 0	 1	 1	 1	 0	 
216	0	 1	 1	 0	 0	 0	 0	 
